
Gurobi 12.0.2 (win64) logging started Mon Nov  3 17:48:09 2025

Set parameter LogFile to value "resultados DATA_1_n30m05b2d2\instancia_7_log.txt"
Set parameter TimeLimit to value 1800
Gurobi Optimizer version 12.0.2 build v12.0.2rc0 (win64 - Windows 10.0 (19045.2))

CPU model: Intel(R) Core(TM) i5-6300U CPU @ 2.40GHz, instruction set [SSE2|AVX|AVX2]
Thread count: 2 physical cores, 4 logical processors, using up to 4 threads

Non-default parameters:
TimeLimit  1800

Optimize a model with 41 rows, 69 columns and 755 nonzeros
Model fingerprint: 0x99434736
Variable types: 0 continuous, 69 integer (69 binary)
Coefficient statistics:
  Matrix range     [1e+00, 1e+00]
  Objective range  [8e-02, 3e-01]
  Bounds range     [1e+00, 1e+00]
  RHS range        [1e+00, 6e+00]
Found heuristic solution: objective 0.4742222
Presolve removed 41 rows and 69 columns
Presolve time: 0.00s
Presolve: All rows and columns removed

Explored 0 nodes (0 simplex iterations) in 0.02 seconds (0.00 work units)
Thread count was 1 (of 4 available processors)

Solution count 2: 0.541333 0.474222 
No other solutions better than 0.541333

Optimal solution found (tolerance 1.00e-04)
Best objective 5.413333333333e-01, best bound 5.413333333333e-01, gap 0.0000%
